Route #1: 17 40 32 44 3 16 51 6 68
Route #2: 30 48 29 45 27 52 8 35 53 7
Route #3: 11 38 65 66 59 14 19
Route #4: 54 13 57 15 5 37 20 70 60 71 69 36 47
Route #5: 63 33 73 62 28 61 21 74 2
Route #6: 1 22 64 42 43 41 56 23 49 24 18
Route #7: 58 10 31 55 25 50 9 39 72 12
Route #8: 26 67 46 34 4 75
Cost 788